
 102   30
  10   10   10   10   10   10   10   10   10   10   10   10   10   10   10   10   10   10   10   10   10   10   10   10   10   10   10   10   10   10

   0   0   0   0   0   0   0   0   0   0   0   0   0   0   0   0   0   0   0   0   0   0   0   0   0   0   0   0   0   0   0  26 2 3 4 5 6 7 8 9 10 11 12 13 14 15 17 18 22 23 24 26 32 34 35 40 43 46 
   2   0   0   0   0   1   0   0   2   0   0   0   0   0   0   0   0   0   0   0   0   0   0   0   0   0   0   0   0   0   0  17 65 64 63 62 61 59 57 54 53 50 44 42 41 39 33 30 27 
   8   1   0   0   0   6   0   0   0   0   0   0   0   0   0   0   0   0   0   0   0   0   0   0   0   0   0   0   0   0   0  15 100 75 64 61 57 56 50 48 47 42 39 38 37 29 16 
   1   0   0   1   0   0   0   0   0   0   0   1   2   0   0   0   1   0   0   0   0   0   0   0   0   0   0   0   0   2   0  14 101 100 76 75 63 60 51 48 45 41 39 36 25 21 
   9   0   0   0   0   0   0   3   0   0   0   0   7   3   0   0   0   2   0   0   0   0   0   0   0   0   0   1   0   0   0  13 63 62 59 56 55 54 48 47 41 39 30 20 19 
   5   0   0   5   0   0   0   0   3   0   0   0   0   0   0   0   0   0   0   0   0   0   2   0   0   0   0   0   5   0   0  13 75 69 65 64 63 62 59 50 48 45 41 38 20 
   7   3   0   0   3   0   0   0   0   0   0   0   8   0   0   0   0   0   0   0   0   0   0   0   0   0   0   0   8   0   1  14 100 75 64 62 61 60 58 55 50 48 47 42 36 28 
   7   0   0   0   0   0   0   0   0   0   0   0   0   6   0   1   0   0   0   0   0   7   0   1   0   0   1   0   9   0   0  14 100 99 76 75 69 61 54 51 48 47 45 44 41 39 
   2   8   0   0   5   0   0   0   0   0   0   0   0   2   0   0   0   5   0   0   0   0   0   0   0   0   0   0   0   0   0  12 76 75 63 61 54 52 51 50 49 44 41 30 
   2   0   0   0   0   0   0   0   0   0   0   0   0   0   0   0   0   0   0   0   0   0   0   0   0   0   0   0   0   0   0  16 99 96 76 75 73 72 69 65 61 59 58 57 55 44 41 39 
   1   0   1   0   0   0   0   0   8   0   0   0   0   0   0   0   3   0   0   0   0   0   6   0   1   1   0   0   0   0   0  10 99 75 73 67 61 52 51 48 41 30 
   7   0   0   5   0   0   0   0   0   0   0   0   0   0   2   5   0   0   1   0   0   4   0   0   0   0   0   0   0   6   0  10 100 99 70 65 64 54 52 44 41 31 
   5   0   0   0   0   0   0   0   0   2   0   0   0   0   0   0   0   0   0   0   0   0   0   0   0   0   0   0   0   0   0  13 94 93 90 69 67 63 62 61 60 58 55 52 27 
   5   0   0   0   0   0   0   2  10   0   0   0   0   0   0   0   0   0   0   0   0   0  10   0   0   0   0   3   0   0   0  12 100 98 96 95 93 76 73 72 54 51 49 36 
   6   0   0   0   0   0   0   0   0   0   0   0   0   0   0   0   0   0   0   0   0   0   0   7   0   0   0   7   0   0   0  14 100 97 92 76 75 73 72 69 67 66 62 60 50 41 
   8   0   0   0   0   0   0   0   0   0   0   0   0   0   9   0   0   0   0   5   1   0   0   0   7   0   0   0   0   0   0  19 101 99 98 96 95 94 93 90 84 76 73 72 71 70 69 67 63 52 51 
   5   0   0   0   0   0   0   0   0   0   0   0   0   4   0   0   0   0   5   0   0   0   0   0   0   0   0   0   0   0   0  15 98 97 96 95 75 73 72 71 69 67 66 62 61 60 37 
   8   0   0   0   0   0   0   0   0   4   0   0   0   0   5   0   7   0   0   0   0   0   5   4   8   0   0   0   0   0   0  14 96 94 91 75 74 69 68 67 66 63 61 60 58 45 
   3   0   0   0   0   0   0   0   0   0   0   0   0   0   0   0   0   9   0   0   7   0   2   0   0   0   0   0   0   0   0  15 100 99 96 93 91 86 76 75 74 73 72 70 66 58 44 
   9   0   0   0   0   0   0   0   0  10   1   0   0   0   0   0   0   0   0   0   0   5   0   0   0   0   0   0   0   0   0  20 100 99 97 96 95 94 93 92 89 88 84 83 76 74 73 71 68 66 61 52 
   6   7   0   0   0   0   0   0   0   0   0   9   0   0   0   0   0   0   0   0   0   0   0   7   0   0   0   0   0   0   0  14 99 97 96 95 92 90 89 74 72 66 62 56 52 49 
   8   0   0   0   0   0   0   7   0   0   0   0   0   0   9   0   0   0   0   0   0   0   0   0   0   3   0   0   0   9   0  13 100 98 97 96 94 93 89 88 84 73 66 61 39 
   3   0   0   0   0   0   0   0   0   0   0   4   0   0   0   0   0   0   0   0   0   0   0   3   0   0   0   0   0   0   0  17 100 98 96 95 93 91 89 87 86 83 79 74 70 68 66 61 49 
   2   0   0   0   0   0   0   6   0   7   0   7   0   0   0   0   0   0   0   0   0   2   0   3   7   0   0   0   0   0   0  15 98 96 93 92 91 90 88 86 73 70 69 67 64 60 51 
   8   0   0   0   5   0   0   0   0   7   8   0   0  10   0   0  10   0   0   0   0   0   0   0   0   6   0   0   0   6   8  13 95 94 92 90 74 71 70 69 67 66 61 55 52 
   9   0   0   0   5   0   0   8   0   0   3   0   0   0   0   0   8   0   0   0   0  10   0   0   0   0   8   0   0   5   9  12 99 98 94 92 90 88 84 75 73 64 52 51 
  10   0   0   0   7   0   0   0   0   0   0   0   0   0   0   0   0   0   0   0  10   0   0   0   0   0   0   0   0   0   0  10 99 96 91 87 85 84 83 71 66 45 
   7   0   0   0   0   0   0   0   0   0   0   0   0   0   0   6   0   0   0   0   0   0   0   0   0   0   0   0   0   0   0   8 99 97 96 85 84 71 67 45 
   5   0   0   0   0   7   0   0   0   0   0   0   0   0   0   0   0   0   0   0   0   0   0   0   0   0   0   0   0   0   0  17 94 93 92 91 90 89 88 86 85 84 82 79 73 71 70 67 65 
   9   0   0   0   0   0   0   0   0   4   5   0   0   0   5   0   0   0   0   0   0   0   0   0   0  10   0   0   0   4   0  16 100 98 97 96 95 90 88 87 86 84 83 82 72 70 69 58 
   6   0   0   0   0   0   0   0   0   0  10   4   0   0   0   0   0   0   0   0   0   0   6   0   0   0   0   0   0   0   0  13 95 92 91 90 89 81 80 75 74 72 67 66 55 
   1   0   0   6   0   0   0   0   8   0   0   0   9   0   7   0   0   0   0   0   0   0   0   0   0   6   0   0   0   0   0  14 98 96 92 91 89 88 85 84 83 79 74 70 68 58 
   1   0   0   0   0   0   0   4   0   0   0   0   0   4   0   8   0   0   0   0   0   0   0   0   0   0   6   0   0   0   5  13 92 90 88 87 86 84 83 76 75 74 73 72 58 
   1   0   0   0   0   0   0   7   0   0   0   0   0   0   0   0   0   9   0   0   0   0   3   0   0   0   0   6   0   0   0   8 92 89 88 83 71 60 59 52 
   6   0   0   0   0   0   0   0   0   0   0   0   0   0   0   0   0   0   0   0   0   0   7   0   0   0   0   7   0   0   0  13 99 96 94 93 88 87 84 83 82 79 70 69 58 
   8   0   0   0   0   0   0   0   0   6   0   0   5   0   0   0   0   0   0   0   0   2   0   0   0   0   0   0   0   0   0   8 89 88 84 71 70 68 67 52 
   4   0   0   0   0   6   0   0   0   0   0   0   0   0   0   0   0   0   0   0   0   0   0   0   0   0   0   0   0   0   5  15 94 93 92 90 88 87 86 84 83 82 81 79 77 76 70 
   1   0   0   0  10   0   0   7   0   0   0   0   0   0   0   0   0   0   0   0   0   0   0   0   0   0   0   0   5  10   0  12 98 96 94 93 91 90 88 85 78 77 67 60 
   8   0  10   0   0   0   0   0   0   0   0   0   0   0   0   6   0   0   0   2   0   0   0   0   0   0   0   0   0   0   4   8 95 92 90 83 82 71 70 52 
   5   0   0   0   9   2   0   0   0   5   0   7   0   0   0   0   6   0   0   0   0   0   0  10   6   0   0   0   0   0   0  12 95 90 89 88 86 84 83 76 72 71 70 66 
   4   0   0   0   0   9   0   5   0   8   0   0   0   0   0   0   0   0   6  10   0   0   0   0   0   0   6   9   0   0   0  13 98 95 94 93 88 87 86 83 81 80 79 71 68 
   1   0   0   6   6   5   0   4   0   5   4   0   0   0   0   0   5   0   0   0   0   0   0   0   0   0   8   0   8   0   0  13 97 93 88 86 85 84 83 82 81 80 79 78 68 
   2   0   0   0   7   0   0   0   0   0   0   0   0   0   0   0   0   8   0   0   0   0   0   0   0   0   0   0   0   0   0  12 96 94 92 91 90 88 87 84 79 77 76 70 
  10   0   0   0   0   0   0   8   0   0   0   0   0   0   3   0   8   0   0   0   0   0   0   0   0   0   0   0   5   0   0   9 97 92 89 88 85 80 77 67 60 
   8   0   0   0   0   0   0   0   0   0   0   0   0   5   0   0   0   0   0   3   0   0   0   0   0   0   0   0   0   0   0  10 95 92 89 88 86 82 80 73 72 70 
   6   0   0   0   0   0   0   0   0   0   0   0   0   0   0   0   0   0   0   0   0   0   5   0   0   8   0   0   0   0   0  10 91 87 86 85 84 83 82 72 70 66 
   6   0   0   0   0   7   1   0   9   5   0   0   0   0   0   0   0   0   0   0   0   0   0   0   3   0   0   0   0   0   0   9 97 96 93 86 81 80 79 74 66 
   9   0   0   0   0   0   0   0   0   0   0   0   4   0   0   0   0   0   0   0   7   0   8   0   0   0   8   7   0   0   0  11 94 93 92 88 86 85 83 82 81 79 77 
   1   0   0   0   0   0   0   0   0   3   0   0   0   0   0   0   0   0   8   0   0   0   7   0   0   0   0   0   0   0   0   6 94 88 85 84 82 58 
   7   0   0   0  10   0   0   0   0   0   0   0   0   0   0   0   0   4   0   6   0   0   0   0   0   0   0   0   0   0   0   9 91 90 89 86 84 81 80 79 70 
  10   0   0   8   0   0   9   0   0   6   0   0   0   0   0   0   0   0   0   0   0   0   0   0   0   7   0   0   0   0   0   7 97 89 85 83 81 74 66 
   4   0   0   0   3   0   6  10   0   0   3   0   0   0   0   0   4   0   0   0   0   0   0   0   9   9   0   0   0   0   0   8 91 87 86 85 81 80 79 78 
   4   0   0   0   0   0   0   0   0   0   0   5   0   0   0   0   0   0   0   0   0   8   0   0   6   0   0   0   0   9   0   6 83 81 79 78 77 69 
   8   0   0   0   0   0   0   0   0   0   0   0   0   0   0   0   0   0   0   0   0   5   0   0   0   0   0   0   0   0   0   7 92 87 86 82 80 78 77 
   2   0   0   0   0   0   0   0   0   0   0   0   0   0   0   0   0   0   0   0   0   0   0   0   0   0   0   0   0   0   0   6 98 86 85 84 79 77 
   6   0   0   0   0   0   0   0   0   0   0   0   4   0   0   0   0   0   0   0   6   0   0   0   0   0   0   0   0   0   7   5 84 83 82 77 70 
  10   0   0   0   0   0   0   0   0   0   0   0   7   6   0   6   0   0   0   0   0   0   0   0   6   0   4   0   0   0   6   5 97 85 84 83 70 
   5   0   0   0   0   0   0   0   0   0   0   0   0   5   0   0   0   5   0   0   0   0   0   0   0   5   0   0   6   9   0   4 81 80 78 71 
   2   0   0   0   0   0   0   0   0   0   0   0   0   5   0   0   0   0   0   0   0   0   0   0   0   0   0   0   0   0   0   4 93 87 79 77 
   1   0   0   0   0   0   0   0   0   0   5   0   0   0   0   0   0   0   0   0   0   0   0   0   0   0   0   0   0   0   0   3 84 82 79 
  10   0   0   0   5   0   0   0   0   0   0   0   0   0  10   5   0   0   0   0   0   7   0   8   0   0   0   0   0   0   0   3 85 82 80 
   2   0   0   9   0   2   0   0   0   0   0   0   0   0   0   2   0   0   8   0   0   0   5   0   0   0   0   6   0   0   0   3 91 85 79 
   6   0   0   0   6   0   0   0   0   0   0   0   0   0   0   6   0   0   0   0   0   0   0   7  10   0   0   0   0   0   0   3 88 81 78 
   2   0   0   0   0   0   0   0   0   0   0   0   0   0   0   0   0   0   0   0   0   0   0   0   0   0   0   0   0   0   0   3 97 81 78 
   1   0   0   0   0   0   0   0   0   0   0   0   0   0   0   7   6   0   0   0   0   0   0   0   0   0   0   0   0   0   0   1 66 
   4   0   0   0   0   0   4   0   0   0   0   0   0   0   0   0   0   0   0   0   0   0   0   7   0   7   0   7  10   0   0   2 78 77 
   6   0   4   9   0   0   0   0   0   0   8   0   0   7   0   0   0   0   9   0   0   0   0   0   0   0   7   0   0   0   0   2 87 83 
   8   0   0   0   0   0   0   0   0   0   0   6   0  10   0   0   4   3   0  10   7   0   0   0   0   0   0   0   0   0   0   2 90 77 
   7   0   0   0   0   0   0   0   0   8   0   0   0   0   0   0   0   0   0   0   0   0   0  10   0   0   0   0   0   0   0   2 89 80 
   2   0   0   0   0   0   0   0   0   0   0   0   0   0   0   0   0   6   0   0   0   9   0   0   0   0   0   0   2   0   0   1 78 
   7   0   0   0   0   8   0   0   0   0   0   0   0   0   0   0   0   0   0   0   0   0   0   0   0   0   0   4   5   6   0   1 77 
   6   0  10   0   0   0   0  10   0   0   8   0   0   0   0   0   0   0   0   0   0   0   0   0   7   0   0   0   0   0   0   1 79 
   6   6   0   0   0   0   0   6   0   0   0   0   0   0   0   0   0  10   0   0   0   0   0   0   0   0   0   6   0   0   0   1 81 
   1   0   0   0   0   0   0   0   0   0   0   0   0   0   0   0   0   0   5   0   0   0   0   0   0   0   0   0   7   0   0   1 82 
   5   0   0   0   7   0   7   3   0   0   0   5   0   0   0   0   8   0   0   0   0   0   0   0   0   0   0   0   4   0   0   1 85 
   7   0   5   0   0   0   0   0   0   0  10   0   0   0   0   0   0   0   0   0   0   0   8   0   0   0   0   0   6   0   0   1 80 
   8   7   7   0   0   6   8   0   0   0   0   0   4   0   7   4   0   0   0   0   0   0   5   0   0   0   3   0   0   0   0   1 102
   3   0   0   0   0   0   8   0   0   0   0   0   0   0   0   0   0   0   0   0  10   0   0   6   3   0   9   0   5   0   0   1 102
   7   0   0   0   0   0   0   0   0   0   0   0   0   0   0   0   0   0   0   0   0   0   0   0   0   0   0   0   0   0   0   1 102
   1   0   0   0   0   0   0   0   3   0   0   0   0   0   0   7   0   0   0   0   0   0   0   6   0   0   0   0   0   5   0   1 102
   5   0   8   0   0   8   0   5   0   0   0   0   0   0   0   9   0   0   0   0   0   0   0   0   0   3   0   0   0   0   0   1 102
   1   0   0   5   0   0   0   0   0   8   8   0   0   0   0   0   0   0   0   0   0   0   0   0   0   0   6   0   0   5   0   1 102
   4   0   0   0   4   0   0   0   0   0   8   8   0   0   0   0   0   5   0   0   0   0   0   0   0   0   0   0   0   0  10   1 102
   4   0   0   0   0   0   0   0   0   0   0   0   0   0   0   0   0   0   0   0   0   0   0   0   0   8   0   0   0   0   0   1 102
   9   0   0   0   0   0   0   0   0   0   4   9   4   0   0   0   0   0   5   0   0   0   8   0   0   0   0   0   4   0   0   1 102
   6   0   0   7   0   0   0   0   0   8   0   6   0   0   3   0   0   0   0   0   0   0   0   0   0   0   0   0   0   6   0   1 102
   7   0   0   0   7   0   0   0   0   0   0   0   8   0   0   0   0   0   0   0   4   0   0   0   0   0   0   0   0   8   0   1 102
   9   0   5   0   0   0   0   0   3   0   0   0   0   0   0   0   0   0   0   0   0   0   0   0   6   0   0   0   0   0   0   1 102
   6   0   4   0   0   0   0   0   0   5   0   0  10   7   0   0   0   0   0   0   0   0   8   5   0   5   0   0   0   0   3   1 102
   9   0   0   0   3   0   0   0   7   0   0   0   0   0   0   0   0   0   0   0   0   0   0   6   0   0   0   0   0   0   0   1 102
   5   0   0   0   0   0   8   0   0   0   0   0   0   6   8   0   0   0   0   0   0   0   0   0   4   0   0  10   0   0   8   1 102
   4   0   0   0   0   0   0   0   0   5   0   0   0   0   0   0   0   0   0   0   0   3   0   0   0   0   0   0   0   0   0   1 102
   9   0   0   0   0   0   3   0   0   0   0   7   0   0   0   6   0   0   0   6   0  10   0   0   0   0   0   0   0   0   0   1 102
   2   0   0   5   0   0   0   0   7   0   0   0   0   0   0  10   0   0   0   0   0   0   0   0   0   0   0   0   7   0   0   1 102
   5   0   0   0   0   0   0   6   0   0   0   0   0  10   0   0   0   0   0   0   0   0   0   0   0   0   0   0   0   4   0   1 102
   2   0   0   0   0   9   0   0   0   0   0   0   0   0   0   0   0   0   8   0   3   0   0   0   0   0   0   5   0   0   0   1 102
   3   0   0   0   0   0   0   7   0   0   0   0   0   0   0   0   0   0   0   0   0   0   0   0   7   0   0   0   0   0   0   1 102
   8   0   0   0   0   0   0   0   0   0   0   0   0   0   0   8   8   0   0   0   0   0   7   0   0   0   0   0   0   3   0   1 102
   8   0   0   0   0   0   0   0   0   8   0   0   0   0   0   0   0   0   0   0   5   0   0   0   0   0   0   0   0   5   0   1 102
   2  10   0   0   0   0   0   0   0   0   5   0   0   0   0   0   6   0   5   0   0   0   0   0   0   0   0   0   0   0   0   1 102
  10   0   0   6   0   8   0   0   0   0   0   0   0   0   4   0   0   0   0   0   0   0   0   0   0   0   0   0   0   0   0   1 102
   0   0   0   0   0   0   0   0   0   0   0   0   0   0   0   0   0   0   0   0   0   0   0   0   0   0   0   0   0   0   0   0 
